52
6 41 76
41 16 408
16 20 253
20 30 150
30 21 104
21 48 94
48 31 50
31 17 163
17 2 135
2 44 220
44 18 75
18 40 92
40 7 64
7 8 183
8 9 83
9 42 308
42 32 365
32 50 475
50 10 285
10 51 399
51 13 319
13 12 206
12 26 185
26 11 283
11 27 182
27 25 159
25 46 186
46 28 523
28 15 201
15 45 156
45 24 173
24 3 109
3 5 70
5 14 40
14 4 25
4 23 32
23 47 16
47 37 49
37 36 43
36 39 41
39 38 43
38 35 43
35 34 15
34 33 21
33 43 80
43 49 175
49 19 35
19 22 94
22 29 179
29 52 436
52 1 150
1 6 45

